NAME:18_9
TYPE: TSP
DIMENSION: 18
EDGE_WEIGHT_TYPE: EXPLICIT
EDGE_WEIGHT_FORMAT: UPPER_ROW
EDGE_WEIGHT_SECTION
258 258 258 258 258 258 258 258 0 93 93 87 108 86 98 96 96 258 258 258 258 258 258 258 109 0 86 100 101 101 101 99 109 258 258 258 258 258 258 124 106 0 100 121 101 113 119 129 258 258 258 258 258 115 92 92 0 107 107 107 105 115 258 258 258 258 104 86 86 100 0 86 86 99 109 258 258 258 109 106 106 100 116 0 116 119 119 258 258 104 101 101 100 101 86 0 109 109 258 96 103 103 97 103 88 88 0 96 86 93 93 87 103 86 88 86 0 258 258 258 258 258 258 258 258 258 258 258 258 258 258 258 258 258 258 258 258 258 258 258 258 258 258 258 258 258 258 258 258 258 258 258 258 